
;this file is automatically generated: Tue Oct 27 10:35:00 CST 2020

;declarations generated

(declare-fun oclExcludes ( Int Int) Bool)
(declare-fun type_e1762ea2_4e1f_45cc_9e2f_b0c648a92eb9_Class24 ( Int) Bool)
(declare-fun Cardinality ( Int) Int)
(declare-fun obj_ad3c6d75_8f80_48b4_9042_622eec5d1c58 ( Int) Int)
(declare-fun oclSelect ( Int Bool) Int)
(declare-fun Enum0 ( Int) Int)
(declare-fun Enum1 ( Int) Int)
(declare-fun Enum2 ( Int) Int)
(declare-fun class5_Class5BoolAttr0 ( Int) Bool)
(declare-fun type_e1762ea2_4e1f_45cc_9e2f_b0c648a92eb9_Class5 ( Int) Bool)
(declare-fun type_e1762ea2_4e1f_45cc_9e2f_b0c648a92eb9_Class8 ( Int) Bool)
(declare-fun container_ ( Int) Int)
(declare-fun type_e1762ea2_4e1f_45cc_9e2f_b0c648a92eb9_Class19 ( Int) Bool)
(declare-fun type_e1762ea2_4e1f_45cc_9e2f_b0c648a92eb9_Class16 ( Int) Bool)
(declare-fun oclIncludes ( Int Int) Bool)
(declare-fun ObjAt ( Int Int) Int)

;formula(s) generated
(assert (! (forall ((v Int)) (=> (and (and (and (and ( type_e1762ea2_4e1f_45cc_9e2f_b0c648a92eb9_Class5 v )  ( type_e1762ea2_4e1f_45cc_9e2f_b0c648a92eb9_Class24 v ) ) ( type_e1762ea2_4e1f_45cc_9e2f_b0c648a92eb9_Class16 v ) ) ( type_e1762ea2_4e1f_45cc_9e2f_b0c648a92eb9_Class8 v ) ) ( type_e1762ea2_4e1f_45cc_9e2f_b0c648a92eb9_Class19 v ) ) ( class5_Class5BoolAttr0 ( obj_ad3c6d75_8f80_48b4_9042_622eec5d1c58 v )  ) )):named l0))
(assert (! (forall ((v Int)) (=> (and (and (and (and ( type_e1762ea2_4e1f_45cc_9e2f_b0c648a92eb9_Class5 v )  ( type_e1762ea2_4e1f_45cc_9e2f_b0c648a92eb9_Class24 v ) ) ( type_e1762ea2_4e1f_45cc_9e2f_b0c648a92eb9_Class16 v ) ) ( type_e1762ea2_4e1f_45cc_9e2f_b0c648a92eb9_Class8 v ) ) ( type_e1762ea2_4e1f_45cc_9e2f_b0c648a92eb9_Class19 v ) ) (not ( class5_Class5BoolAttr0 ( obj_ad3c6d75_8f80_48b4_9042_622eec5d1c58 v )  )  ))):named l1))
(assert (exists ((o Int)) (and (and (and (and ( type_e1762ea2_4e1f_45cc_9e2f_b0c648a92eb9_Class5 ( obj_ad3c6d75_8f80_48b4_9042_622eec5d1c58 o )  )  ( type_e1762ea2_4e1f_45cc_9e2f_b0c648a92eb9_Class24 ( obj_ad3c6d75_8f80_48b4_9042_622eec5d1c58 o )  ) ) ( type_e1762ea2_4e1f_45cc_9e2f_b0c648a92eb9_Class16 ( obj_ad3c6d75_8f80_48b4_9042_622eec5d1c58 o )  ) ) ( type_e1762ea2_4e1f_45cc_9e2f_b0c648a92eb9_Class8 ( obj_ad3c6d75_8f80_48b4_9042_622eec5d1c58 o )  ) ) ( type_e1762ea2_4e1f_45cc_9e2f_b0c648a92eb9_Class19 ( obj_ad3c6d75_8f80_48b4_9042_622eec5d1c58 o )  ) )))

 ;end of formula 